%%%%%%%%%%%%%%%%%%%%%%%%%%%%%%%%%%%%%%%%%%%%%%%%%%%%%%%%%%%%%%%%%%%%%%%%%
%FILE DATA:	Soccer Computational Problem for MiniZinc Models
%AUTHORS:	Robinson Duque, Alejandro Arbelaez, Juan Francisco Díaz
%CONTACT:  	robinson.duque@correounivalle.edu.co 
%LAST UPDATE:	May, 2018 
%ROUND ROBIN:2
%TEAMS:20
%PRESENT FIXTURE:22
%FIXTURES TO PLAY:16
%GAMES TO PLAY:160
%%%%%%%%%%%%%%%%%%%%%%%%%%%%%%%%%%%%%%%%%%%%%%%%%%%%%%%%%%%%%%%%%%%%%%%%%
%Number of teams:
n=20;

%For the purpose of our models, we offer two representations of the games to play, namely fixtures and games to play:

%Fixtures to play:
%fixtures=[|0,1,1,0,1,1,0,0,1,1,1,1,1,1,1,1,1,1,1,1
%|1,0,0,1,1,1,0,0,1,1,1,1,1,1,1,1,1,1,1,1
%|1,0,0,1,1,1,0,1,1,1,1,0,1,1,1,1,1,1,1,1
%|0,1,1,0,1,1,1,1,1,1,0,1,1,0,1,1,1,1,1,1
%|1,1,1,1,0,1,1,0,1,0,1,1,1,0,1,1,1,1,1,1
%|1,1,1,1,1,0,1,1,1,0,1,1,1,0,1,1,0,1,1,1
%|0,0,0,1,1,1,0,1,1,1,1,1,1,1,1,1,1,1,1,1
%|0,0,1,1,0,1,1,0,1,1,1,1,1,1,1,1,1,1,1,1
%|1,1,1,1,1,1,1,1,0,1,0,0,1,1,0,1,1,1,1,1
%|1,1,1,1,0,0,1,1,1,0,0,1,1,1,1,1,1,1,1,1
%|1,1,1,0,1,1,1,1,0,0,0,1,1,1,1,1,1,1,1,1
%|1,1,0,1,1,1,1,1,0,1,1,0,0,1,1,1,1,1,1,1
%|1,1,1,1,1,1,1,1,1,1,1,0,0,1,0,0,1,1,1,1
%|1,1,1,0,0,0,1,1,1,1,1,1,1,0,1,1,1,1,1,1
%|1,1,1,1,1,1,1,1,0,1,1,1,0,1,0,0,1,1,1,1
%|1,1,1,1,1,1,1,1,1,1,1,1,0,1,0,0,1,1,0,1
%|1,1,1,1,1,0,1,1,1,1,1,1,1,1,1,1,0,0,1,0
%|1,1,1,1,1,1,1,1,1,1,1,1,1,1,1,1,0,0,0,0
%|1,1,1,1,1,1,1,1,1,1,1,1,1,1,1,0,1,0,0,0
%|1,1,1,1,1,1,1,1,1,1,1,1,1,1,1,1,0,0,0,0|];

%Played Fixtures:
%PlayedFixtures=[|0,1,1,2,1,1,2,2,1,1,1,1,1,1,1,1,1,1,1,1
%|1,0,2,1,1,1,2,2,1,1,1,1,1,1,1,1,1,1,1,1
%|1,2,0,1,1,1,2,1,1,1,1,2,1,1,1,1,1,1,1,1
%|2,1,1,0,1,1,1,1,1,1,2,1,1,2,1,1,1,1,1,1
%|1,1,1,1,0,1,1,2,1,2,1,1,1,2,1,1,1,1,1,1
%|1,1,1,1,1,0,1,1,1,2,1,1,1,2,1,1,2,1,1,1
%|2,2,2,1,1,1,0,1,1,1,1,1,1,1,1,1,1,1,1,1
%|2,2,1,1,2,1,1,0,1,1,1,1,1,1,1,1,1,1,1,1
%|1,1,1,1,1,1,1,1,0,1,2,2,1,1,2,1,1,1,1,1
%|1,1,1,1,2,2,1,1,1,0,2,1,1,1,1,1,1,1,1,1
%|1,1,1,2,1,1,1,1,2,2,0,1,1,1,1,1,1,1,1,1
%|1,1,2,1,1,1,1,1,2,1,1,0,2,1,1,1,1,1,1,1
%|1,1,1,1,1,1,1,1,1,1,1,2,0,1,2,2,1,1,1,1
%|1,1,1,2,2,2,1,1,1,1,1,1,1,0,1,1,1,1,1,1
%|1,1,1,1,1,1,1,1,2,1,1,1,2,1,0,2,1,1,1,1
%|1,1,1,1,1,1,1,1,1,1,1,1,2,1,2,0,1,1,2,1
%|1,1,1,1,1,2,1,1,1,1,1,1,1,1,1,1,0,2,1,2
%|1,1,1,1,1,1,1,1,1,1,1,1,1,1,1,1,2,0,2,2
%|1,1,1,1,1,1,1,1,1,1,1,1,1,1,1,2,1,2,0,2
%|1,1,1,1,1,1,1,1,1,1,1,1,1,1,1,1,2,2,2,0|];

%Games to play:
games=[|2,1|3,1|4,2|4,3|5,1|5,2|5,3|5,4|6,1|6,2|6,3|6,4|6,5|7,4|7,5|7,6|8,3|8,4|8,6|8,7|9,1|9,2|9,3|9,4|9,5|9,6|9,7|9,8|10,1|10,2|10,3|10,4|10,7|10,8|10,9|11,1|11,2|11,3|11,5|11,6|11,7|11,8|12,1|12,2|12,4|12,5|12,6|12,7|12,8|12,10|12,11|13,1|13,2|13,3|13,4|13,5|13,6|13,7|13,8|13,9|13,10|13,11|14,1|14,2|14,3|14,7|14,8|14,9|14,10|14,11|14,12|14,13|15,1|15,2|15,3|15,4|15,5|15,6|15,7|15,8|15,10|15,11|15,12|15,14|16,1|16,2|16,3|16,4|16,5|16,6|16,7|16,8|16,9|16,10|16,11|16,12|16,14|17,1|17,2|17,3|17,4|17,5|17,7|17,8|17,9|17,10|17,11|17,12|17,13|17,14|17,15|17,16|18,1|18,2|18,3|18,4|18,5|18,6|18,7|18,8|18,9|18,10|18,11|18,12|18,13|18,14|18,15|18,16|19,1|19,2|19,3|19,4|19,5|19,6|19,7|19,8|19,9|19,10|19,11|19,12|19,13|19,14|19,15|19,17|20,1|20,2|20,3|20,4|20,5|20,6|20,7|20,8|20,9|20,10|20,11|20,12|20,13|20,14|20,15|20,16|];

%Played Games:
%PlayedGames=[|2,1|3,1|3,2|3,2|4,1|4,1|4,2|4,3|5,1|5,2|5,3|5,4|6,1|6,2|6,3|6,4|6,5|7,1|7,1|7,2|7,2|7,3|7,3|7,4|7,5|7,6|8,1|8,1|8,2|8,2|8,3|8,4|8,5|8,5|8,6|8,7|9,1|9,2|9,3|9,4|9,5|9,6|9,7|9,8|10,1|10,2|10,3|10,4|10,5|10,5|10,6|10,6|10,7|10,8|10,9|11,1|11,2|11,3|11,4|11,4|11,5|11,6|11,7|11,8|11,9|11,9|11,10|11,10|12,1|12,2|12,3|12,3|12,4|12,5|12,6|12,7|12,8|12,9|12,9|12,10|12,11|13,1|13,2|13,3|13,4|13,5|13,6|13,7|13,8|13,9|13,10|13,11|13,12|13,12|14,1|14,2|14,3|14,4|14,4|14,5|14,5|14,6|14,6|14,7|14,8|14,9|14,10|14,11|14,12|14,13|15,1|15,2|15,3|15,4|15,5|15,6|15,7|15,8|15,9|15,9|15,10|15,11|15,12|15,13|15,13|15,14|16,1|16,2|16,3|16,4|16,5|16,6|16,7|16,8|16,9|16,10|16,11|16,12|16,13|16,13|16,14|16,15|16,15|17,1|17,2|17,3|17,4|17,5|17,6|17,6|17,7|17,8|17,9|17,10|17,11|17,12|17,13|17,14|17,15|17,16|18,1|18,2|18,3|18,4|18,5|18,6|18,7|18,8|18,9|18,10|18,11|18,12|18,13|18,14|18,15|18,16|18,17|18,17|19,1|19,2|19,3|19,4|19,5|19,6|19,7|19,8|19,9|19,10|19,11|19,12|19,13|19,14|19,15|19,16|19,16|19,17|19,18|19,18|20,1|20,2|20,3|20,4|20,5|20,6|20,7|20,8|20,9|20,10|20,11|20,12|20,13|20,14|20,15|20,16|20,17|20,17|20,18|20,18|20,19|20,19|];

%Played Games - Win Results:
%% 0  0  1  0  0  0  0  0  0  0  0  1  0  0  0  0  0  0  0  1
%% 0  0  0  0  0  0  0  0  0  0  0  0  1  0  0  0  0  0  0  0
%% 0  0  0  0  0  0  0  0  0  0  0  0  0  1  0  0  0  0  0  0
%% 0  0  0  0  0  0  0  0  0  0  0  1  0  0  0  0  0  0  0  0
%% 1  0  0  1  0  1  0  0  1  0  0  1  0  0  0  1  0  0  0  0
%% 0  1  0  0  0  0  0  1  1  0  0  1  1  0  0  0  0  0  0  0
%% 0  0  0  1  0  1  0  1  1  1  1  0  0  1  0  1  0  0  0  1
%% 0  0  0  0  0  0  0  0  0  0  0  0  0  0  0  0  0  0  0  0
%% 0  1  1  1  0  0  0  1  0  0  0  0  0  1  0  0  0  0  0  0
%% 0  0  1  0  0  0  0  0  1  0  0  1  1  1  1  0  1  0  0  1
%% 1  1  1  0  1  0  0  1  0  0  0  0  0  1  1  0  0  0  0  1
%% 0  1  0  0  0  0  0  0  0  0  0  0  0  0  0  0  0  0  0  0
%% 0  0  0  0  0  0  0  0  0  0  0  0  0  0  0  0  0  0  0  0
%% 0  1  0  0  0  0  0  0  0  0  0  0  0  0  0  0  0  0  0  0
%% 0  0  1  1  1  1  0  0  0  0  0  1  0  0  0  0  0  0  0  0
%% 0  0  1  1  0  1  0  0  1  0  0  1  0  1  0  0  0  0  0  1
%% 1  0  0  1  0  0  0  0  0  0  1  0  1  0  1  1  0  0  0  2
%% 1  1  0  1  1  0  1  1  0  1  0  0  1  1  1  1  2  0  0  0
%% 1  1  1  0  1  0  1  0  0  1  1  0  1  0  1  0  0  2  0  2
%% 0  0  0  0  0  1  0  0  0  0  0  0  0  0  0  0  0  0  0  0
%Played Games - Tie Results:
%% 0  1  0  2  0  1  2  2  1  1  0  0  1  1  1  1  0  0  0  0
%% 1  0  2  1  1  0  2  2  0  1  0  0  0  0  1  1  1  0  0  1
%% 0  2  0  1  1  1  2  1  0  0  0  2  1  0  0  0  1  1  0  1
%% 2  1  1  0  0  1  0  1  0  1  2  0  1  2  0  0  0  0  1  1
%% 0  1  1  0  0  0  1  2  0  2  0  0  1  2  0  0  1  0  0  1
%% 1  0  1  1  0  0  0  0  0  2  1  0  0  2  0  0  2  1  1  0
%% 2  2  2  0  1  0  0  0  0  0  0  1  1  0  1  0  1  0  0  0
%% 2  2  1  1  2  0  0  0  0  1  0  1  1  1  1  1  1  0  1  1
%% 1  0  0  0  0  0  0  0  0  0  2  2  1  0  2  0  1  1  1  1
%% 1  1  0  1  2  2  0  1  0  0  2  0  0  0  0  1  0  0  0  0
%% 0  0  0  2  0  1  0  0  2  2  0  1  1  0  0  1  0  1  0  0
%% 0  0  2  0  0  0  1  1  2  0  1  0  2  1  0  0  1  1  1  1
%% 1  0  1  1  1  0  1  1  1  0  1  2  0  1  2  2  0  0  0  1
%% 1  0  0  2  2  2  0  1  0  0  0  1  1  0  1  0  1  0  1  1
%% 1  1  0  0  0  0  1  1  2  0  0  0  2  1  0  2  0  0  0  1
%% 1  1  0  0  0  0  0  1  0  1  1  0  2  0  2  0  0  0  2  0
%% 0  1  1  0  1  2  1  1  1  0  0  1  0  1  0  0  0  0  1  0
%% 0  0  1  0  0  1  0  0  1  0  1  1  0  0  0  0  0  0  0  2
%% 0  0  0  1  0  1  0  1  1  0  0  1  0  1  0  2  1  0  0  0
%% 0  1  1  1  1  0  0  1  1  0  0  1  1  1  1  0  0  2  0  0
%Played Games - Lose Results:
%% 0  0  0  0  1  0  0  0  0  0  1  0  0  0  0  0  1  1  1  0
%% 0  0  0  0  0  1  0  0  1  0  1  1  0  1  0  0  0  1  1  0
%% 1  0  0  0  0  0  0  0  1  1  1  0  0  0  1  1  0  0  1  0
%% 0  0  0  0  1  0  1  0  1  0  0  0  0  0  1  1  1  1  0  0
%% 0  0  0  0  0  0  0  0  0  0  1  0  0  0  1  0  0  1  1  0
%% 0  0  0  0  1  0  1  0  0  0  0  0  0  0  1  1  0  0  0  1
%% 0  0  0  0  0  0  0  0  0  0  0  0  0  0  0  0  0  1  1  0
%% 0  0  0  0  0  1  1  0  1  0  1  0  0  0  0  0  0  1  0  0
%% 0  0  0  0  1  1  1  0  0  1  0  0  0  0  0  1  0  0  0  0
%% 0  0  0  0  0  0  1  0  0  0  0  0  0  0  0  0  0  1  1  0
%% 0  0  0  0  0  0  1  0  0  0  0  0  0  0  0  0  1  0  1  0
%% 1  0  0  1  1  1  0  0  0  1  0  0  0  0  1  1  0  0  0  0
%% 0  1  0  0  0  1  0  0  0  1  0  0  0  0  0  0  1  1  1  0
%% 0  0  1  0  0  0  1  0  1  1  1  0  0  0  0  1  0  1  0  0
%% 0  0  0  0  0  0  0  0  0  1  1  0  0  0  0  0  1  1  1  0
%% 0  0  0  0  1  0  1  0  0  0  0  0  0  0  0  0  1  1  0  0
%% 0  0  0  0  0  0  0  0  0  1  0  0  0  0  0  0  0  2  0  0
%% 0  0  0  0  0  0  0  0  0  0  0  0  0  0  0  0  0  0  2  0
%% 0  0  0  0  0  0  0  0  0  0  0  0  0  0  0  0  0  0  0  0
%% 1  0  0  0  0  0  1  0  0  1  1  0  0  0  0  1  2  0  2  0

%%Initial points:
iPoints=[23, 17, 17, 17, 30, 27, 38, 17, 27, 35, 35, 17, 16, 17, 27, 32, 35, 46, 48, 15];

%%Initial positions:
%iPositions=[12, 18, 17, 16, 8, 11, 3, 15, 10, 6, 5, 14, 19, 13, 9, 7, 4, 2, 1, 20];

%%Position Constraints:
%numberPositionConstraints=1;

%%Total Fixtures:
%totalFixtures=38;

%%Fixtures to Play:
%fixturesToPlay=16;

%%Position Constraints Built With
%wantedPoints=[3, 1, 0, 1, 0, 3, 0, 0, 3, 0, 3, 0, 0, 1, 0, 0, 0, 0, 3, 1, 3, 1, 1, 0, 3, 0, 0, 1, 1, 3, 1, 3, 0, 3, 1, 3, 3, 0, 1, 0, 0, 0, 3, 1, 1, 0, 1, 0, 1, 0, 1, 0, 0, 0, 3, 1, 0, 1, 3, 1, 1, 0, 3, 1, 0, 3, 3, 0, 0, 1, 1, 3, 1, 0, 3, 3, 0, 0, 3, 3, 0, 3, 3, 3, 3, 3, 0, 3, 0, 0, 0, 3, 3, 0, 1, 3, 1, 1, 1, 1, 1, 0, 3, 0, 3, 1, 1, 0, 0, 0, 3, 1, 1, 3, 1, 0, 1, 1, 3, 1, 3, 1, 3, 0, 3, 1, 1, 1, 3, 1, 1, 1, 3, 3, 1, 1, 0, 1, 3, 0, 1, 0, 3, 1, 3, 0, 3, 1, 3, 3, 0, 1, 0, 0, 1, 3, 3, 1, 0, 3];

%POSITION CONSTRAINTS
%%[|teamID, operator, position|...]
%%operators index:
%%%1 for =  operator
%%%2 for >  operator
%%%3 for >= operator
%%%4 for <  operator
%%%5 for <= operator

positionConstraints=[|8,1,19|];

%SCORE VECTOR CONSTRAINTS
%%[|teamID, operator, wantedPoints|...]
%%operators index:
%%%1 for =  operator
%%%2 for >  operator
%%%3 for >= operator
%%%4 for <  operator
%%%5 for <= operator

%scoreVectorConstraints=[|8,1,32|];

%Instance Features:
%features=T,FP,TF,C,C/T,C/TF,FP/TF,FP/T,FP*C/T,FP*T/C,(C/T)*(FP/TF),Distance,Distance/C,Distance/T,Distance/(C*T)
%values=20,16,38,1,0.05,0.02631578947368421,0.4210526315789473,0.8,0.8,320.0,0.02105263157894737,4,4.0,0.2,0.2



gamesOfEveryTeam=[16,16,16,16,16,16,16,16,16,16,16,16,16,16,16,16,16,16,16,16];
weights=[|77,23,0,0|6,17,0,77|5,59,0,36|17,39,0,44|6,72,0,22|76,13,0,11|59,0,0,41|43,48,0,9|64,0,0,36|79,9,0,12|38,22,0,40|16,75,0,9|11,45,0,44|44,17,0,39|60,40,0,0|85,6,0,9|13,60,0,27|16,19,0,65|70,8,0,22|3,71,0,26|86,13,0,1|66,7,0,27|25,65,0,10|2,22,0,76|22,55,0,23|75,25,0,0|49,27,0,24|31,42,0,27|59,10,0,31|72,4,0,24|48,38,0,14|44,31,0,25|65,9,0,26|12,2,0,86|18,44,0,38|2,12,0,86|82,5,0,13|68,2,0,30|91,5,0,4|62,35,0,3|0,21,0,79|29,33,0,38|20,53,0,27|21,24,0,55|83,11,0,6|71,6,0,23|13,74,0,13|68,7,0,25|44,7,0,49|90,8,0,2|41,31,0,28|67,33,0,0|82,18,0,0|84,0,0,16|20,42,0,38|83,2,0,15|16,31,0,53|43,43,0,14|38,49,0,13|76,10,0,14|52,37,0,11|40,33,0,27|97,0,0,3|10,11,0,79|1,25,0,74|64,12,0,24|97,0,0,3|24,9,0,67|24,22,0,54|19,14,0,67|19,36,0,45|33,58,0,9|27,61,0,12|97,2,0,1|8,80,0,12|44,49,0,7|13,61,0,26|87,8,0,5|72,5,0,23|60,27,0,13|28,54,0,18|36,37,0,27|50,5,0,45|98,1,0,1|35,26,0,39|68,4,0,28|69,7,0,24|58,27,0,15|37,9,0,54|47,51,0,2|62,25,0,13|28,68,0,4|61,20,0,19|2,63,0,35|91,2,0,7|98,2,0,0|59,9,0,32|53,11,0,36|73,26,0,1|30,14,0,56|84,7,0,9|85,3,0,12|61,20,0,19|85,9,0,6|8,55,0,37|87,9,0,4|16,12,0,72|87,1,0,12|9,70,0,21|8,12,0,80|3,82,0,15|68,27,0,5|71,20,0,9|90,8,0,2|20,73,0,7|78,19,0,3|59,27,0,14|21,9,0,70|100,0,0,0|82,3,0,15|13,39,0,48|11,53,0,36|69,6,0,25|18,35,0,47|38,20,0,42|24,58,0,18|43,34,0,23|50,7,0,43|41,2,0,57|22,8,0,70|48,21,0,31|93,3,0,4|80,2,0,18|12,17,0,71|99,1,0,0|21,6,0,73|42,53,0,5|62,6,0,32|50,33,0,17|10,59,0,31|12,31,0,57|3,53,0,44|66,4,0,30|70,4,0,26|27,73,0,0|35,18,0,47|8,18,0,74|97,0,0,3|50,41,0,9|89,5,0,6|68,7,0,25|86,4,0,10|55,18,0,27|20,40,0,40|85,6,0,9|47,40,0,13|30,30,0,40|59,10,0,31|64,23,0,13|1,31,0,68|];